%BLOCK LATTICE_CART
    4.2000000000    0.0000000000    0.0000000000
    0.0000000000    4.2000000000    0.0000000000
    0.0000000000    0.0000000000    4.2000000000
%ENDBLOCK LATTICE_CART

%BLOCK POSITIONS_FRAC
