%BLOCK LATTICE_CART
    4.2000000000    0.0000000000    0.0000000000
    0.0000000000    4.2000000000    0.0000000000
    0.0000000000    0.0000000000    4.2000000000
%ENDBLOCK LATTICE_CART

%BLOCK POSITIONS_FRAC
    Mg    0.0000000000    0.0000000000    0.0000000000
     O    0.3333333333    0.0000000000    0.0000000000
    Mg    1.0000000000    0.0000000000    0.0000000000
     O    0.0000000000    0.3333333333    0.0000000000
    Mg    0.3333333333    0.3333333333    0.0000000000
     O    1.0000000000    0.3333333333    0.0000000000
    Mg    0.0000000000    1.0000000000    0.0000000000
     O    0.3333333333    1.0000000000    0.0000000000
    Mg    1.0000000000    1.0000000000    0.0000000000
     O    0.0000000000    0.0000000000    0.3333333333
    Ca    0.3333333333    0.0000000000    0.3333333333
     O    1.0000000000    0.0000000000    0.3333333333
    Mg    0.0000000000    0.3333333333    0.3333333333
     O    0.3333333333    0.3333333333    0.3333333333
    Mg    1.0000000000    0.3333333333    0.3333333333
     O    0.0000000000    1.0000000000    0.3333333333
    Mg    0.3333333333    1.0000000000    0.3333333333
     O    1.0000000000    1.0000000000    0.3333333333
    Ca    0.0000000000    0.0000000000    1.0000000000
     O    0.3333333333    0.0000000000    1.0000000000
    Ca    1.0000000000    0.0000000000    1.0000000000
     O    0.0000000000    0.3333333333    1.0000000000
    Ca    0.3333333333    0.3333333333    1.0000000000
     O    1.0000000000    0.3333333333    1.0000000000
    Ca    0.0000000000    1.0000000000    1.0000000000
     O    0.3333333333    1.0000000000    1.0000000000
    Ca    1.0000000000    1.0000000000    1.0000000000
%ENDBLOCK POSITIONS_FRAC

kpoints_mp_grid 3 3 3

symmetry_generate

%BLOCK CELL_CONSTRAINTS
       1       1       1
       0       0       0
%ENDBLOCK CELL_CONSTRAINTS
