%BLOCK LATTICE_CART
    8.4000000000    0.0000000000    0.0000000000
    0.0000000000    8.4000000000    0.0000000000
    0.0000000000    0.0000000000    8.4000000000
%ENDBLOCK LATTICE_CART

%BLOCK POSITIONS_FRAC
    Mg    0.0000000000    0.0000000000    0.0000000000
     O    0.3750000000    0.0000000000    0.0000000000
    Mg    0.7500000000    0.0000000000    0.0000000000
     O    0.0000000000    0.3750000000    0.0000000000
    Mg    0.3750000000    0.3750000000    0.0000000000
     O    0.7500000000    0.3750000000    0.0000000000
    Mg    0.0000000000    0.7500000000    0.0000000000
     O    0.3750000000    0.7500000000    0.0000000000
    Mg    0.7500000000    0.7500000000    0.0000000000
     O    0.0000000000    0.0000000000    0.3750000000
    Ca    0.3750000000    0.0000000000    0.3750000000
     O    0.7500000000    0.0000000000    0.3750000000
    Ca    0.0000000000    0.3750000000    0.3750000000
     O    0.3750000000    0.3750000000    0.3750000000
    Mg    0.7500000000    0.3750000000    0.3750000000
     O    0.0000000000    0.7500000000    0.3750000000
    Mg    0.3750000000    0.7500000000    0.3750000000
     O    0.7500000000    0.7500000000    0.3750000000
    Ca    0.0000000000    0.0000000000    0.7500000000
     O    0.3750000000    0.0000000000    0.7500000000
    Ca    0.7500000000    0.0000000000    0.7500000000
     O    0.0000000000    0.3750000000    0.7500000000
    Ca    0.3750000000    0.3750000000    0.7500000000
     O    0.7500000000    0.3750000000    0.7500000000
    Ca    0.0000000000    0.7500000000    0.7500000000
     O    0.3750000000    0.7500000000    0.7500000000
    Ca    0.7500000000    0.7500000000    0.7500000000
%ENDBLOCK POSITIONS_FRAC

kpoints_mp_grid 3 3 3

symmetry_generate

%BLOCK CELL_CONSTRAINTS
       1       1       1
       0       0       0
%ENDBLOCK CELL_CONSTRAINTS
