%BLOCK LATTICE_CART
    4.2000000000    0.0000000000    0.0000000000
    0.0000000000    4.2000000000    0.0000000000
    0.0000000000    0.0000000000    4.2000000000
%ENDBLOCK LATTICE_CART

%BLOCK POSITIONS_FRAC
Mg 0.00 0.00 0.00
 O 0.33 0.00 0.00
Mg 1.00 0.00 0.00
 O 0.00 0.33 0.00
Mg 0.33 0.33 0.00
 O 1.00 0.33 0.00
Mg 0.00 1.00 0.00
 O 0.33 1.00 0.00
Mg 1.00 1.00 0.00
 O 0.00 0.00 0.33
Ca 0.33 0.00 0.33
 O 1.00 0.00 0.33
Mg 0.00 0.33 0.33
 O 0.33 0.33 0.33
Ca 1.00 0.33 0.33
 O 0.00 1.00 0.33
Mg 0.33 1.00 0.33
 O 1.00 1.00 0.33
Ca 0.00 0.00 1.00
 O 0.33 0.00 1.00
Ca 1.00 0.00 1.00
 O 0.00 0.33 1.00
Ca 0.33 0.33 1.00
 O 1.00 0.33 1.00
Ca 0.00 1.00 1.00
 O 0.33 1.00 1.00
Ca 1.00 1.00 1.00
%ENDBLOCK POSITIONS_FRAC

kpoints_mp_grid 3 3 3

symmetry_generate

%BLOCK CELL_CONSTRAINTS
       1       1       1
       0       0       0
%ENDBLOCK CELL_CONSTRAINTS
