%BLOCK LATTICE_CART
    4.2000000000    0.0000000000    0.0000000000
    0.0000000000    4.2000000000    0.0000000000
    0.0000000000    0.0000000000    4.2000000000
%ENDBLOCK LATTICE_CART

%BLOCK POSITIONS_FRAC
     O    0.5000000000    0.5000000000    0.5000000000
     O    0.5000000000    0.0000000000    0.0000000000
     O    0.0000000000    0.5000000000    0.0000000000
     O    0.0000000000    0.0000000000    0.5000000000
    Mg    0.0000000000    0.0000000000    0.0000000000
    Mg    0.0000000000    0.5000000000    0.5000000000
    Mg    0.5000000000    0.0000000000    0.5000000000
    Mg    0.5000000000    0.5000000000    0.0000000000
%ENDBLOCK POSITIONS_FRAC

kpoints_mp_grid 3 3 3

symmetry_generate

%BLOCK CELL_CONSTRAINTS
       1       1       1
       0       0       0
%ENDBLOCK CELL_CONSTRAINTS

! The following section is commented out; CASTEP will generate these files for you
! the first time you use the appropriate element. You can then uncomment this block
! to speed up the initial stages of the calculation. 
!%BLOCK SPECIES_POT
!       O   O_OTF.usp
!      Mg  Mg_OTF.usp
!      Ca  Ca_OTF.usp
!%ENDBLOCK SPECIES_POT


