%block lattice_cart
5.43 0.0  0.0 
0.0  5.43 0.0
0.0  0.0  5.43
%endblock lattice_cart

%block positions_frac
Si 0.0 0.0 0.0
Si 0.5 0.0 0.5
Si 0.5 0.5 0.0
Si 0.0 0.5 0.5
%endblock positions_frac
